 200 39 
 72 26 96 97 6 25 66 90 70 85 50 39 
 42 4 70 97 52 75 74 21 7 10 9 11 
 12 49 39 68 65 44 37 6 69 32 18 92 
 36 80 59 
 6 
 20 21 26 27 35 36 
 33 
 1 3 4 5 6 7 8 9 10 11 12 14 
 15 16 17 18 20 21 22 23 24 26 27 28 
 29 31 32 33 34 36 37 38 39 
 9 
 4 9 10 12 20 28 31 33 38 
 9 
 3 5 6 12 19 23 30 33 35 
 32 
 1 2 3 4 5 6 8 9 11 12 13 14 
 15 16 17 18 19 20 22 23 24 25 27 29 
 30 32 33 34 35 36 37 39 
 33 
 1 2 3 4 5 6 7 8 10 11 12 13 
 14 15 16 17 18 19 20 22 23 24 27 28 
 29 30 31 33 34 35 36 37 38 
 21 
 1 5 6 9 10 11 12 14 15 17 19 20 
 21 22 25 26 28 32 33 35 39 
 31 
 2 4 6 7 8 9 10 12 13 14 15 19 
 20 21 22 23 24 25 26 27 28 29 30 31 
 32 33 34 36 37 38 39 
 6 
 7 14 23 28 35 38 
 9 
 2 12 14 15 19 22 24 30 38 
 22 
 2 5 10 11 12 13 15 16 18 19 20 23 
 26 27 28 29 30 33 34 36 38 39 
 25 
 2 4 5 6 7 8 9 10 12 13 15 17 
 18 21 22 23 24 25 26 29 32 34 35 37 
 38 
 21 
 2 7 9 15 16 17 18 22 23 24 25 26 
 27 30 31 33 34 35 36 37 39 
 12 
 8 10 12 17 19 21 24 28 31 32 34 35 
 34 
 1 2 3 4 5 6 7 9 10 12 13 14 
 15 16 17 19 20 21 23 24 25 26 27 29 
 30 31 32 33 34 35 36 37 38 39 
 29 
 1 2 3 4 5 7 8 12 13 14 16 17 
 19 20 21 22 23 24 25 27 28 30 32 33 
 35 36 37 38 39 
 24 
 1 2 3 5 6 7 8 10 12 13 14 18 
 22 23 24 26 27 29 32 33 34 35 36 39 
 14 
 2 7 8 9 15 19 25 28 30 31 32 33 
 35 39 
 27 
 1 2 3 4 5 6 8 10 11 15 16 17 
 18 19 20 21 23 25 26 28 30 31 32 33 
 35 37 39 
 12 
 2 4 5 10 18 23 24 27 30 31 32 37 
 27 
 1 2 3 4 5 6 7 8 9 10 12 15 
 18 19 22 24 27 28 29 30 31 32 35 36 
 37 38 39 
 37 
 1 2 3 4 5 6 7 8 10 11 12 13 
 14 15 16 17 18 19 20 21 22 24 25 26 
 27 28 29 30 31 32 33 34 35 36 37 38 
 39 
 20 
 5 7 10 11 12 13 14 16 20 22 24 25 
 26 27 29 30 31 33 38 39 
 29 
 1 2 4 5 6 7 8 10 11 12 14 15 
 17 19 20 21 23 24 26 29 30 31 32 33 
 34 35 37 38 39 
 5 
 2 6 13 34 39 
 8 
 3 5 10 20 21 27 30 32 
 23 
 2 4 10 11 12 13 17 18 20 22 23 24 
 25 26 28 30 31 32 34 35 36 37 38 
 19 
 5 6 7 8 11 12 13 14 16 17 22 23 
 27 28 29 30 33 35 38 
 24 
 2 3 4 5 6 8 9 10 12 13 14 16 
 19 20 27 28 29 30 31 32 35 36 37 39 
 30 
 1 2 3 4 5 7 10 11 12 13 14 15 
 16 17 18 20 21 22 23 26 27 28 29 30 
 33 34 35 37 38 39 
 14 
 1 3 6 9 12 17 18 23 25 28 30 32 
 34 39 
 31 
 1 3 5 7 9 11 12 13 14 15 16 18 
 19 20 21 22 23 24 25 26 27 28 29 30 
 32 33 34 35 36 37 38 
 16 
 1 2 3 4 5 6 7 9 18 22 26 28 
 31 34 35 37 
 6 
 8 15 20 26 34 37 
 22 
 2 3 4 6 7 8 9 12 16 17 18 20 
 24 25 26 30 33 34 35 36 37 39 
 20 
 1 2 3 4 13 14 17 18 19 20 21 22 
 28 29 30 32 34 36 37 38 
 14 
 1 3 4 10 13 15 19 24 30 33 34 36 
 37 39 
 7 
 1 9 12 26 37 38 39 
 14 
 2 3 8 9 10 11 12 15 24 25 29 30 
 34 39 
 17 
 2 9 11 13 14 16 21 23 26 28 29 30 
 31 32 33 35 36 
 6 
 6 31 32 34 37 39 
 22 
 2 3 4 7 8 9 11 12 13 14 16 18 
 19 28 29 30 33 34 35 37 38 39 
 13 
 2 3 6 7 11 12 13 17 19 20 22 24 
 31 
 24 
 2 4 6 8 9 10 11 12 13 14 16 17 
 19 23 25 26 29 30 31 32 33 34 35 36 
 39 
 1 2 3 4 5 6 7 8 9 10 11 12 
 13 14 15 16 17 18 19 20 21 22 23 24 
 25 26 27 28 29 30 31 32 33 34 35 36 
 37 38 39 
 23 
 4 5 7 8 9 12 13 15 17 20 21 23 
 24 25 27 28 29 30 31 33 37 38 39 
 39 
 1 2 3 4 5 6 7 8 9 10 11 12 
 13 14 15 16 17 18 19 20 21 22 23 24 
 25 26 27 28 29 30 31 32 33 34 35 36 
 37 38 39 
 9 
 5 7 13 17 20 23 26 33 39 
 14 
 2 4 6 8 11 12 15 19 23 26 28 29 
 32 38 
 15 
 3 6 7 12 14 16 22 24 25 28 29 33 
 34 38 39 
 24 
 2 5 6 8 10 11 12 14 19 20 21 24 
 25 26 27 28 29 31 33 34 35 36 38 39 
 19 
 1 3 5 8 12 13 14 15 16 20 23 24 
 26 27 28 30 32 37 39 
 18 
 1 3 4 7 8 10 15 16 18 24 25 26 
 28 30 31 32 34 37 
 37 
 1 2 3 4 5 6 7 8 9 10 12 13 
 14 15 16 17 18 19 20 21 22 23 24 25 
 26 27 28 29 30 31 32 33 34 36 37 38 
 39 
 11 
 2 12 16 18 20 21 25 26 29 30 34 
 8 
 3 4 10 15 16 21 26 37 
 20 
 1 2 5 9 11 13 14 15 16 17 19 22 
 23 25 27 28 32 34 36 38 
 18 
 1 2 3 4 5 6 9 10 11 15 20 27 
 29 32 33 35 37 39 
 30 
 1 2 5 6 7 8 9 10 13 14 15 16 
 17 18 20 21 23 24 25 26 27 30 31 32 
 34 35 36 37 38 39 
 28 
 2 3 4 5 6 8 9 12 13 14 15 16 
 17 18 20 21 23 24 25 26 27 28 29 32 
 33 35 36 38 
 7 
 2 3 19 20 31 37 38 
 26 
 1 4 5 6 7 8 10 12 13 14 15 16 
 19 24 25 27 28 29 30 31 32 33 34 36 
 37 39 
 20 
 1 2 4 5 7 8 9 12 16 18 20 21 
 22 24 28 30 33 35 36 38 
 28 
 1 3 4 6 7 8 10 11 12 13 15 17 
 19 20 21 22 23 24 25 27 29 30 31 33 
 34 36 37 38 
 7 
 4 6 7 10 18 32 33 
 6 
 9 16 18 19 26 29 
 8 
 5 9 11 13 21 25 30 31 
 23 
 4 5 6 8 9 11 12 16 17 18 19 21 
 22 25 26 27 28 30 31 32 36 37 39 
 3 
 7 26 35 
 32 
 1 4 5 6 7 8 9 11 12 13 15 16 
 17 18 19 20 21 22 23 24 25 26 28 29 
 30 32 33 34 35 36 37 38 
 23 
 1 2 4 6 8 9 11 14 15 16 17 18 
 20 23 24 25 28 31 33 34 35 37 38 
 27 
 1 3 6 8 9 10 13 14 15 16 17 19 
 20 21 22 23 25 28 29 30 31 34 35 36 
 37 38 39 
 17 
 1 7 9 14 15 16 17 20 23 25 26 27 
 28 32 34 35 39 
 17 
 3 5 8 11 14 15 16 20 23 25 29 30 
 33 34 35 38 39 
 6 
 1 12 14 19 20 29 
 19 
 1 7 8 9 10 11 13 19 20 21 22 23 
 26 30 31 32 33 34 39 
 11 
 13 17 18 20 22 29 31 32 33 37 38 
 29 
 1 2 3 4 5 6 7 10 11 12 13 14 
 16 17 19 21 24 26 27 28 29 30 31 32 
 33 34 35 37 39 
 17 
 1 2 3 4 8 9 10 12 15 20 21 26 
 28 31 32 33 38 
 6 
 6 13 18 31 35 38 
 16 
 2 3 7 8 10 15 20 22 25 26 28 30 
 33 35 36 37 
 19 
 1 4 5 7 11 12 13 16 17 21 22 26 
 28 29 32 33 34 37 39 
 35 
 1 2 3 4 5 6 7 8 9 10 11 13 
 14 15 16 17 18 19 20 21 22 24 25 26 
 28 29 31 32 33 34 35 36 37 38 39 
 12 
 1 5 6 8 15 17 19 21 22 23 25 26 
 31 
 1 2 4 6 7 8 10 12 13 14 15 16 
 18 19 20 21 22 23 24 26 27 28 30 31 
 33 34 35 36 37 38 39 
 35 
 1 2 3 4 5 7 8 10 11 12 13 14 
 15 16 18 19 20 21 22 23 24 25 26 27 
 28 29 30 31 32 33 34 35 37 38 39 
 35 
 1 2 3 4 5 6 7 8 9 11 12 13 
 15 16 17 18 19 20 21 22 23 24 25 26 
 27 28 30 31 32 33 35 36 37 38 39 
 11 
 8 9 14 15 16 19 23 24 30 31 36 
 5 
 3 20 22 25 27 
 27 
 1 2 4 5 6 8 9 10 11 12 13 14 
 15 17 19 20 21 26 27 28 31 34 35 36 
 37 38 39 
 35 
 1 3 5 6 7 9 10 11 12 13 14 15 
 16 17 18 19 20 21 22 23 24 25 26 27 
 28 29 30 31 32 33 34 35 36 37 39 
 5 
 18 20 24 29 34 
 16 
 1 2 5 7 8 14 15 17 18 22 23 24 
 25 29 35 37 
 6 
 7 13 17 23 35 36 
 38 
 1 2 3 4 5 6 7 8 9 10 11 12 
 13 14 15 16 17 18 19 20 21 22 23 24 
 26 27 28 29 30 31 32 33 34 35 36 37 
 38 39 
 6 
 3 12 20 24 27 38 
 11 
 1 5 10 16 19 22 23 25 33 37 38 
 8 
 15 19 22 24 25 27 29 38 
 26 
 1 2 4 5 6 7 11 12 14 15 17 19 
 20 21 23 25 26 27 28 29 30 32 33 34 
 36 39 
 17 
 1 2 4 8 9 10 11 13 14 15 17 18 
 21 33 34 35 38 
 14 
 3 9 14 15 18 21 24 27 33 34 35 37 
 38 39 
 6 
 2 12 19 26 32 33 
 26 
 1 2 3 4 5 6 7 10 11 12 14 15 
 16 22 23 25 26 27 28 29 30 31 35 36 
 37 38 
 19 
 4 5 6 7 9 12 15 16 19 20 21 22 
 27 28 30 31 34 35 39 
 8 
 11 14 17 22 25 27 34 37 
 26 
 2 3 4 5 6 7 8 9 10 11 13 16 
 19 20 22 23 24 25 28 29 30 32 33 34 
 37 39 
 33 
 1 3 4 5 6 7 8 9 10 12 13 14 
 15 17 18 19 20 21 22 23 24 26 27 28 
 30 31 32 33 35 36 37 38 39 
 12 
 2 5 7 17 19 21 24 25 27 34 36 37 
 14 
 3 8 16 18 23 25 26 27 29 30 31 33 
 35 36 
 21 
 1 2 3 4 5 7 8 10 11 13 16 18 
 21 25 26 28 29 33 35 36 39 
 14 
 8 10 11 15 21 23 24 26 27 29 30 34 
 35 37 
 33 
 2 3 4 6 7 8 9 10 11 12 13 14 
 15 16 17 18 19 21 22 23 25 26 27 28 
 29 30 31 32 33 34 35 36 38 
 33 
 1 3 4 5 6 7 8 9 10 11 12 13 
 14 16 17 19 20 21 22 23 24 25 26 27 
 28 31 32 33 34 35 37 38 39 
 22 
 2 3 4 6 7 9 13 14 16 18 19 21 
 24 25 28 29 30 31 32 33 38 39 
 11 
 4 8 9 12 17 19 27 30 31 32 37 
 37 
 1 2 3 4 5 6 7 8 9 11 12 13 
 14 15 16 17 18 19 20 21 22 23 24 25 
 26 27 28 29 30 31 32 33 34 35 36 37 
 39 
 10 
 2 5 6 7 14 22 24 30 31 37 
 11 
 1 5 7 12 18 19 20 22 25 26 29 
 33 
 1 2 3 4 5 6 7 8 9 11 12 14 
 15 16 18 19 20 21 22 23 24 25 26 28 
 29 30 31 32 33 34 36 37 39 
 4 
 6 19 28 30 
 21 
 1 2 3 7 10 11 12 14 15 17 22 29 
 31 32 33 34 35 36 37 38 39 
 36 
 1 2 3 4 5 6 7 8 9 10 11 12 
 13 14 16 17 18 19 20 21 22 23 24 25 
 26 27 28 29 30 31 32 34 36 37 38 39 
 2 
 15 17 
 29 
 1 2 3 4 5 6 7 9 10 11 12 15 
 16 17 18 19 20 21 23 24 28 29 30 31 
 32 34 36 37 39 
 20 
 4 6 7 8 9 10 12 13 14 19 21 28 
 30 31 32 33 34 35 37 38 
 13 
 2 6 7 8 12 15 16 19 23 31 32 36 
 39 
 34 
 1 2 3 4 5 6 7 8 9 10 11 12 
 13 14 17 18 19 20 21 23 24 25 26 27 
 28 30 31 32 33 34 36 37 38 39 
 27 
 2 4 6 8 9 10 11 12 13 15 16 17 
 19 23 24 25 26 27 29 30 31 32 33 34 
 35 37 38 
 37 
 1 2 3 4 5 7 8 9 10 11 12 13 
 14 15 16 17 18 19 20 21 22 23 25 26 
 27 28 29 30 31 32 33 34 35 36 37 38 
 39 
 9 
 4 6 9 13 15 22 36 37 39 
 29 
 3 4 6 7 8 9 10 12 13 14 15 16 
 17 18 19 22 23 24 25 28 29 30 31 32 
 33 36 37 38 39 
 33 
 2 5 6 7 8 9 10 11 12 13 14 16 
 17 18 19 20 21 22 23 24 25 27 28 29 
 30 31 32 33 34 35 37 38 39 
 8 
 2 3 8 13 14 16 22 25 
 29 
 1 2 4 6 7 8 9 10 11 12 13 15 
 16 17 18 20 21 22 23 25 27 29 30 31 
 32 33 36 37 39 
 24 
 1 2 3 4 5 8 10 11 12 13 16 18 
 19 20 22 24 27 28 31 34 35 36 37 38 
 16 
 2 3 4 6 9 10 12 13 15 16 22 23 
 25 27 32 38 
 9 
 6 8 12 13 27 34 35 36 37 
 31 
 2 3 6 8 9 10 11 12 13 14 15 16 
 17 18 19 20 21 22 23 24 25 26 27 28 
 29 30 31 33 36 37 38 
 19 
 2 5 6 8 10 13 15 16 17 20 21 22 
 23 28 29 33 35 36 39 
 21 
 4 11 13 14 17 18 19 21 22 24 25 26 
 27 28 29 31 32 33 34 38 39 
 7 
 5 7 10 23 26 27 33 
 16 
 4 7 8 11 13 16 18 20 21 22 24 26 
 33 34 36 38 
 4 
 6 8 9 21 
 22 
 1 3 8 10 14 15 16 19 20 21 24 25 
 26 28 29 32 33 34 35 36 37 39 
 26 
 1 4 5 6 7 8 10 11 13 14 15 16 
 17 18 21 22 25 26 27 28 29 31 32 33 
 34 35 
 17 
 5 6 7 8 9 10 11 12 15 16 17 24 
 30 32 33 37 38 
 17 
 4 5 6 7 14 15 17 19 22 25 27 28 
 30 33 35 36 39 
 28 
 1 3 4 6 7 8 10 11 12 13 14 15 
 16 19 20 21 22 24 26 27 28 31 32 33 
 34 36 38 39 
 21 
 2 3 6 8 10 12 13 15 17 19 21 22 
 24 26 27 29 31 32 36 37 38 
 28 
 2 7 8 9 10 11 12 13 15 16 17 18 
 19 20 22 23 24 25 26 29 30 31 33 34 
 35 36 38 39 
 9 
 11 12 14 18 23 30 34 36 39 
 31 
 1 2 3 4 5 7 8 10 11 12 13 14 
 15 16 17 18 20 22 24 26 27 28 29 31 
 32 33 34 36 37 38 39 
 18 
 2 3 6 7 8 9 14 15 16 18 25 29 
 30 31 33 37 38 39 
 18 
 1 5 8 9 10 11 12 14 15 16 21 22 
 25 33 34 35 38 39 
 8 
 10 13 15 16 19 29 35 39 
 35 
 1 2 3 5 6 7 8 9 10 11 12 13 
 14 15 16 17 18 19 20 21 22 23 24 25 
 26 27 28 29 30 32 34 35 37 38 39 
 11 
 1 4 6 12 13 15 18 23 28 36 39 
 27 
 1 5 6 7 8 11 14 15 18 19 20 21 
 22 23 24 25 26 28 29 31 32 34 35 36 
 37 38 39 
 24 
 1 2 4 5 7 8 10 12 14 15 16 17 
 24 25 26 27 28 29 30 31 32 35 36 39 
 38 
 1 2 3 4 5 6 7 8 9 10 11 12 
 13 14 15 16 17 19 20 21 22 23 24 25 
 26 27 28 29 30 31 32 33 34 35 36 37 
 38 39 
 5 
 2 9 17 22 28 
 17 
 1 4 5 7 10 11 12 13 15 17 20 24 
 28 29 31 35 36 
 4 
 19 24 27 37 
 16 
 7 13 14 15 16 17 19 22 23 24 27 29 
 32 35 37 38 
 34 
 1 3 6 7 8 9 10 11 12 13 14 15 
 16 17 18 19 20 21 23 24 25 26 27 28 
 29 30 31 33 34 35 36 37 38 39 
 38 
 1 2 3 4 5 6 7 8 9 10 11 12 
 13 14 15 16 17 18 19 20 21 22 23 24 
 25 26 27 28 29 30 31 33 34 35 36 37 
 38 39 
 18 
 2 3 4 6 7 8 9 10 13 18 19 24 
 25 28 30 31 36 39 
 2 
 14 32 
 29 
 1 2 4 5 6 7 8 10 11 13 14 17 
 18 21 22 23 24 25 26 27 28 29 30 31 
 32 33 34 36 37 
 21 
 1 4 6 7 8 10 12 13 14 18 19 20 
 22 24 29 30 31 34 36 37 39 
 8 
 9 17 18 20 21 23 25 39 
 31 
 1 2 3 4 5 7 8 10 12 13 14 15 
 17 18 19 20 21 23 25 26 27 28 29 30 
 31 32 33 35 36 38 39 
 12 
 1 3 8 9 11 15 18 23 26 37 38 39 
 34 
 1 2 3 4 5 7 8 9 10 11 12 13 
 14 16 17 18 19 20 21 22 24 25 26 27 
 29 30 31 32 33 34 35 36 37 38 
 2 
 29 37 
 24 
 3 4 5 6 7 8 11 12 13 14 16 18 
 20 21 22 24 26 27 28 30 31 33 35 39 
 30 
 1 2 4 5 7 8 9 10 12 13 14 15 
 16 17 20 21 22 24 26 28 29 30 31 32 
 33 34 35 36 37 38 
 19 
 1 3 5 6 7 9 11 14 21 24 26 27 
 28 31 32 35 36 38 39 
 8 
 4 8 14 18 20 21 29 35 
 14 
 3 4 5 9 11 14 16 18 21 24 27 32 
 37 38 
 28 
 1 2 4 5 6 7 8 12 13 14 15 16 
 19 20 21 23 24 26 27 29 30 31 32 35 
 36 37 38 39 
 7 
 2 8 10 20 27 31 38 
 18 
 1 5 7 9 12 15 17 18 20 22 23 24 
 26 28 29 33 34 36 
 19 
 1 2 3 5 6 11 13 14 15 17 18 19 
 21 23 24 31 33 35 37 
 16 
 3 4 6 7 14 15 17 19 20 22 25 27 
 30 32 34 37 
 39 
 1 2 3 4 5 6 7 8 9 10 11 12 
 13 14 15 16 17 18 19 20 21 22 23 24 
 25 26 27 28 29 30 31 32 33 34 35 36 
 37 38 39 
 7 
 3 7 11 23 34 37 39 
 3 
 8 9 27 
 2 
 6 35 
 24 
 1 3 4 6 7 8 9 11 12 14 15 17 
 18 19 20 24 26 27 28 29 30 31 34 38 
 12 
 3 7 8 10 15 20 22 24 25 31 35 37 
 39 
 1 2 3 4 5 6 7 8 9 10 11 12 
 13 14 15 16 17 18 19 20 21 22 23 24 
 25 26 27 28 29 30 31 32 33 34 35 36 
 37 38 39 
 35 
 1 2 3 4 5 6 7 8 9 10 11 12 
 13 14 15 17 19 20 21 22 23 24 25 26 
 27 28 29 31 32 33 34 35 36 37 38 
 18 
 4 5 7 10 12 13 14 15 16 18 24 30 
 33 34 35 36 38 39 
 9 
 1 3 4 6 9 14 17 21 25 
 22 
 2 3 4 5 6 8 9 16 17 18 19 20 
 21 22 24 28 29 30 32 33 34 38 
 14 
 2 4 8 11 12 14 15 16 22 23 24 30 
 32 37 
 13 
 3 8 13 14 15 16 19 22 24 28 30 32 
 35 
 22 
 1 3 6 8 11 15 16 17 19 20 21 22 
 23 24 25 31 33 34 35 36 37 39 
 21 
 2 5 6 7 9 12 14 16 19 20 22 23 
 25 27 30 31 33 35 36 38 39 
 